NAME: thesis1
TYPE: TSP
COMMENT: Small example
DIMENSION: 8
EDGE_WEIGHT_TYPE: EUC_2D
NODE_COORD_SECTION
1 30.0 30.0
2 30.0 90.0
3 60.0 90.0
4 75.0 69.0
5 25.0 180.0
6 90.0 90.0
7 120.0 80.0
8 120.0 30.0
9 110.0 60.0
10 20.0 50.0
11 40.0 50.0
12 80.0 180.0
13 60.0 60.0
14 10.0 70.0
15 110.0 80.0
16 30.0 180.0
17 80.0 140.0
18 100.0 80.0
19 105.0 150.0
20 50.0 130.0
21 20.0 150.0
22 120.0 90.0
23 80.0 30.0
24 10.0 10.0
EOF

